NAME : gaussian_missing_edges_with_de_seg1_seg2_seg3_random149.9453.tour
COMMENT : Length = 9453
COMMENT : Found by LKH [Keld Helsgaun] Fri Jul 12 16:46:17 2024
TYPE : TOUR
DIMENSION : 149
TOUR_SECTION
1
5
74
147
33
88
149
31
56
98
58
22
29
21
143
47
140
107
93
71
94
11
101
46
54
4
132
23
75
44
106
69
18
43
24
14
59
38
40
48
17
7
113
73
138
87
111
134
70
102
10
103
12
91
126
108
122
66
124
55
84
97
27
28
146
118
83
25
3
85
37
9
112
131
105
49
32
89
145
78
51
82
119
144
68
133
96
20
95
50
77
53
19
42
60
79
81
127
148
136
65
16
92
45
139
39
141
30
67
137
115
8
130
26
13
80
63
117
72
128
120
99
15
121
35
57
36
135
90
123
116
142
34
100
6
114
86
104
61
62
129
109
41
76
125
2
110
52
64
-1
EOF
